Version identifier: 22.1.1.0 | 2022-11-28 | 9160aff4d
CPXPARAM_Threads                                 1
CPXPARAM_MIP_Strategy_VariableSelect             3
CPXPARAM_TimeLimit                               599.99584545499999
Tried aggregator 1 time.
MIP Presolve eliminated 18 rows and 924 columns.
Reduced MIP has 1842 rows, 2772 columns, and 20492 nonzeros.
Reduced MIP has 2772 binaries, 0 generals, 0 SOSs, and 0 indicators.
Presolve time = 0.02 sec. (11.14 ticks)
Probing time = 0.00 sec. (2.68 ticks)
Tried aggregator 1 time.
Detecting symmetries...
Reduced MIP has 1842 rows, 2772 columns, and 20492 nonzeros.
Reduced MIP has 2772 binaries, 0 generals, 0 SOSs, and 0 indicators.
Presolve time = 0.02 sec. (12.56 ticks)
Probing time = 0.00 sec. (2.68 ticks)
Clique table members: 1222.
MIP emphasis: balance optimality and feasibility.
MIP search method: dynamic search.
Parallel mode: none, using 1 thread.
Root relaxation solution time = 0.02 sec. (17.51 ticks)

        Nodes                                         Cuts/
   Node  Left     Objective  IInf  Best Integer    Best Bound    ItCnt     Gap

      0     0        0.0000    32                      0.0000      452         
*     0+    0                            0.0000        0.0000             0.00%
      0     0        cutoff              0.0000        0.0000      452    0.00%
Elapsed time = 0.19 sec. (112.07 ticks, tree = 0.01 MB, solutions = 1)

Root node processing (before b&c):
  Real time             =    0.19 sec. (112.18 ticks)
Sequential b&c:
  Real time             =    0.00 sec. (0.00 ticks)
                          ------------
Total (root+branch&cut) =    0.19 sec. (112.18 ticks)
Primal:	308
Dual:	308
Status:	Optimal
Time:	0.216571
Sequence:
	9
	6
	9
	9
	9
	9
	9
	9
	9
	9
	6
	9
	5
	9
	9
	9
	6
	9
	9
	9
	9
	6
	9
	9
	9
	9
	9
	9
	9
	6
	9
	9
	9
	9
	9
	9
	9
	9
	6
	9
	9
	9
	6
	9
	9
	9
	9
	9
	6
	9
	9
	9
	6
	9
	9
	9
	9
	6
	9
	9
	5
	9
	6
	9
	9
	9
	9
	9
	9
	6
	9
	9
	9
	9
	9
	6
	9
	9
	9
	9
	9
	9
	9
	6
	9
	9
	9
	9
	9
	9
	6
	9
	9
	9
	6
	9
	9
	9
	9
	9
	9
	6
	4
	9
	5
	5
	2
	1
	5
	9
	0
	4
	9
	5
	6
	10
	4
	4
	9
	6
	0
	3
	9
	4
	4
	1
	6
	0
	4
	5
	10
	0
	4
	6
	9
	4
	5
	9
	0
	5
	4
	2
	1
	4
	1
	5
	6
	2
	5
	9
	6
	5
	0
	9
	4
	6
	9
	0
	10
	6
	4
	0
	4
	6
	9
	0
	5
	6
	9
	1
	5
	0
	4
	6
	9
	9
	5
	0
	6
	4
	3
	0
	9
	6
	4
	1
	9
	6
	9
	4
	9
	6
	9
	5
	0
	4
	5
	9
	6
	5
	9
	0
	6
	1
	9
	9
	6
	4
	9
	5
	9
	6
	5
	0
	9
	9
	6
	9
	9
	3
	2
	6
	5
	9
	5
	6
	9
	5
	5
	9
	6
	5
	0
	4
	9
	6
	5
	9
	0
	9
	6
	4
	9
	5
	2
	10
	5
	6
	9
	1
	4
	6
	0
	9
	4
	6
	9
	0
	5
	9
	6
	9
	4
	2
	4
	6
	0
	4
	4
	9
	9
	4
	6
	9
	4
	0
	6
	1
	9
	5
	6
	9
	9
	5
	5
	0
	9
	9
	6
	1
	2
	5
	6
	2
	5
	5
	0
	9
	6
	4
	9
	4
	0
	9
	6
	3
	4
	5
